Total weight: 1139.439352072888
Route 1: 0 52 18 60 5 83 45 82 7 62 88 10 31 69 76 12 26 40 53 6 96 99 95 97 87 2 73 72 75 22 41 57 37 98 85 93 59 94 13 58 21 54 24 29 3 77 28 0 
Route 2: 0 42 15 80 68 4 67 56 74 48 36 8 84 17 61 16 91 100 55 25 0 
Route 3: 0 89 92 39 23 43 14 44 38 86 46 47 19 11 64 49 63 90 32 20 71 65 35 66 0 
Route 4: 0 27 1 50 33 81 79 78 34 9 51 30 70 0 
